Nodes = {"0", "1", "2", "3", "4", "5", "6", "7"};
Arcs = {<"0","4",25,0>, <"4","0",25,0>, <"0","1",25,0>, <"1","0",25,0>, <"0","6",25,0>, <"6","0",25,0>, <"0","3",25,0>, <"3","0",25,0>, <"0","5",25,0>, <"5","0",25,0>, <"0","2",25,129>, <"2","0",25,129>, <"0","7",25,219>, <"7","0",25,219>, <"1","5",25,0>, <"5","1",25,0>, <"1","3",25,0>, <"3","1",25,0>, <"1","2",25,1446>, <"2","1",25,1446>, <"1","4",25,567>, <"4","1",25,567>, <"1","6",25,881>, <"6","1",25,881>, <"1","7",25,154>, <"7","1",25,154>, <"2","5",25,0>, <"5","2",25,0>, <"2","3",25,0>, <"3","2",25,0>, <"2","4",25,246>, <"4","2",25,246>, <"2","6",25,107>, <"6","2",25,107>, <"2","7",25,684>, <"7","2",25,684>, <"3","6",25,0>, <"6","3",25,0>, <"3","7",25,0>, <"7","3",25,0>, <"3","4",25,0>, <"4","3",25,0>, <"3","5",25,143>, <"5","3",25,143>, <"4","5",25,0>, <"5","4",25,0>, <"4","7",25,0>, <"7","4",25,0>, <"4","6",25,147>, <"6","4",25,147>, <"5","6",25,0>, <"6","5",25,0>, <"5","7",25,0>, <"7","5",25,0>, <"6","7",25,299>, <"7","6",25,299>};
Demands = {<"0","1",2,0>, <"0","2",4,0>, <"0","3",6,0>, <"0","4",8,1>, <"0","5",10,1>, <"0","6",12,0>, <"0","7",14,0>, <"1","0",2,0>, <"1","2",2,1>, <"1","3",4,0>, <"1","4",6,0>, <"1","5",8,0>, <"1","6",10,0>, <"1","7",12,0>, <"2","0",4,0>, <"2","1",2,0>, <"2","3",2,0>, <"2","4",4,0>, <"2","5",6,0>, <"2","6",8,0>, <"2","7",10,0>, <"3","0",6,0>, <"3","1",4,0>, <"3","2",2,0>, <"3","4",2,0>, <"3","5",4,0>, <"3","6",6,0>, <"3","7",8,0>, <"4","0",8,0>, <"4","1",6,0>, <"4","2",4,0>, <"4","3",2,0>, <"4","5",2,0>, <"4","6",4,0>, <"4","7",6,0>, <"5","0",10,0>, <"5","1",8,0>, <"5","2",6,0>, <"5","3",4,0>, <"5","4",2,0>, <"5","6",2,0>, <"5","7",4,0>, <"6","0",12,0>, <"6","1",10,0>, <"6","2",8,0>, <"6","3",6,1>, <"6","4",4,0>, <"6","5",2,0>, <"6","7",2,0>, <"7","0",14,0>, <"7","1",12,0>, <"7","2",10,0>, <"7","3",8,0>, <"7","4",6,0>, <"7","5",4,0>, <"7","6",2,0>, <"0","5",10,1>, <"6","3",6,1>, <"1","2",2,1>, <"0","4",8,1>};
